; benchmark generated from python API
(set-info :status unknown)
(declare-datatypes ((IntState 0)) (((Mk1 (val1 Int)) (Mk2 (val2 Int)))))
 (declare-fun c_main_~i~6 () Int)
(declare-fun c_main_~j~6 () Int)
(declare-fun c_main_~k~6 () Int)
(assert
 (let (($x47 (<= c_main_~i~6 3)))
 (let (($x165 (exists ((v_nnf_96_st IntState) (val!32 Int) )(let ((?x56 (val2 v_nnf_96_st)))
 (let (($x115 (<= ?x56 4)))
 (let (($x41 (and (<= (+ ?x56 2) c_main_~k~6) (<= c_main_~j~6 (+ (* 2 ?x56) 2)) $x115)))
 (let (($x52 (not (= v_nnf_96_st (Mk1 val!32)))))
 (and $x52 $x41))))))
 ))
 (let (($x25 (<= c_main_~i~6 2)))
 (let (($x126 (<= c_main_~i~6 4)))
 (let (($x131 (<= c_main_~j~6 (+ (* 2 c_main_~i~6) 1))))
 (let ((?x42 (* 2 c_main_~i~6)))
 (let (($x60 (<= c_main_~j~6 ?x42)))
 (let (($x113 (exists ((v_nnf_96 Int) )(let (($x88 (<= v_nnf_96 4)))
 (and (<= (+ v_nnf_96 2) c_main_~k~6) (<= c_main_~j~6 (+ (* 2 v_nnf_96) 2)) $x88)))
 ))
 (let (($x112 (<= c_main_~j~6 (+ ?x42 2))))
 (and (and $x131 $x126 $x112 $x25 $x113 $x60 $x47) (not (and $x131 $x126 $x25 $x165 $x47)))))))))))))
(check-sat)
